
Starting CP-SAT solver v9.15.6755
Parameters: random_seed: 2026072787 max_time_in_seconds: 2500 log_search_progress: true cp_model_presolve: true linearization_level: 2 num_search_workers: 4 cp_model_probing_level: 2 symmetry_level: 2

Initial satisfaction model '': (model_fingerprint: 0x364b2180674cec07)
#Variables: 724 (608 primary variables)
  - 724 Booleans in [0,1]
#kBoolAnd: 110 (#enforced: 110) (#literals: 330)
#kBoolOr: 110 (#enforced: 110) (#literals: 220)
#kExactlyOne: 87 (#literals: 261)
#kLinear1: 32 (#enforced: 6)
#kLinear2: 336 (#enforced: 336) (#complex_domain: 110)
#kLinear3: 1'600 (#enforced: 6)
#kLinearN: 1'132 (#enforced: 243) (#terms: 9'111)

Starting presolve at 0.00s
  7.19e-04s  0.00e+00d  [DetectDominanceRelations] 
  8.99e-03s  0.00e+00d  [PresolveToFixPoint] #num_loops=3 #num_dual_strengthening=1 
  3.66e-05s  0.00e+00d  [ExtractEncodingFromLinear] #potential_supersets=82 
  2.92e-04s  0.00e+00d  [DetectDuplicateColumns] 
  1.03e-04s  0.00e+00d  [DetectDuplicateConstraints] #duplicates=5 
[Symmetry] Graph for symmetry has 4'869 nodes and 15'718 arcs.
[Symmetry] Symmetry computation done. time: 0.00133286 dtime: 0.0018005
[SAT presolve] num removable Booleans: 220 / 626
[SAT presolve] num trivial clauses: 0
[SAT presolve] [0s] clauses:2'730 literals:7'422 vars:506 one_side_vars:66 simple_definition:1 singleton_clauses:0
[SAT presolve] [0.000252855s] clauses:2'729 literals:7'415 vars:506 one_side_vars:66 simple_definition:1 singleton_clauses:0
[SAT presolve] [0.000729513s] clauses:2'250 literals:6'611 vars:380 one_side_vars:73 simple_definition:65 singleton_clauses:0
  1.18e-04s  0.00e+00d  [DetectDuplicateConstraintsWithDifferentEnforcements] 
  5.62e-03s  2.25e-03d  [Probe] #probed=1'308 #fixed_bools=8 #equiv=6 #new_binary_clauses=1'071 
  4.78e-04s  3.19e-04d  [MaxClique] Merged 585 constraints with 1'287 literals into 503 constraints with 1'157 literals
  9.29e-04s  0.00e+00d  [DetectDominanceRelations] 
  3.22e-03s  0.00e+00d  [PresolveToFixPoint] #num_loops=1 #num_dual_strengthening=1 
  1.24e-03s  0.00e+00d  [ProcessAtMostOneAndLinear] 
  1.01e-04s  0.00e+00d  [DetectDuplicateConstraints] #duplicates=4 
  8.42e-05s  0.00e+00d  [DetectDuplicateConstraintsWithDifferentEnforcements] 
  2.12e-03s  8.45e-05d  [DetectDominatedLinearConstraints] #relevant_constraints=840 #num_inclusions=430 #num_redundant=7 
  1.37e-04s  0.00e+00d  [DetectDifferentVariables] 
  7.90e-04s  8.49e-05d  [ProcessSetPPC] #relevant_constraints=3'020 #num_inclusions=97 
  3.03e-04s  3.34e-05d  [TransformClausesToExactlyOne] #num_amos=524 #num_clauses=1'669 #num_checked=1'669 
  4.87e-05s  0.00e+00d  [DetectEncodedComplexDomains] 
  2.83e-05s  0.00e+00d  [FindAlmostIdenticalLinearConstraints] 
  9.95e-04s  1.45e-03d  [FindBigAtMostOneAndLinearOverlap] 
  1.47e-03s  1.04e-03d  [FindBigVerticalLinearOverlap] #blocks=7 #saved_nz=310 
  1.79e-04s  2.69e-04d  [FindBigHorizontalLinearOverlap] #linears=459 
  3.53e-04s  2.70e-05d  [MergeClauses] #num_collisions=21 #num_merges=21 #num_saved_literals=105 
  9.25e-04s  0.00e+00d  [DetectDominanceRelations] 
  3.53e-03s  0.00e+00d  [PresolveToFixPoint] #num_loops=2 #num_dual_strengthening=1 
  9.16e-04s  0.00e+00d  [DetectDominanceRelations] 
  3.11e-03s  0.00e+00d  [PresolveToFixPoint] #num_loops=1 #num_dual_strengthening=1 
  2.18e-04s  0.00e+00d  [DetectDuplicateColumns] 
  9.03e-05s  0.00e+00d  [DetectDuplicateConstraints] 
[Symmetry] Graph for symmetry has 4'485 nodes and 13'858 arcs.
[Symmetry] Symmetry computation done. time: 0.00102374 dtime: 0.00141345
[SAT presolve] num removable Booleans: 93 / 506
[SAT presolve] num trivial clauses: 0
[SAT presolve] [0s] clauses:2'220 literals:6'563 vars:483 one_side_vars:154 simple_definition:87 singleton_clauses:0
[SAT presolve] [0.000238715s] clauses:2'213 literals:6'355 vars:483 one_side_vars:195 simple_definition:79 singleton_clauses:0
[SAT presolve] [0.000328107s] clauses:2'206 literals:6'353 vars:479 one_side_vars:196 simple_definition:69 singleton_clauses:0
  1.60e-04s  0.00e+00d  [DetectDuplicateConstraintsWithDifferentEnforcements] #without_enforcements=1 
  5.93e-03s  2.17e-03d  [Probe] #probed=1'342 #new_binary_clauses=983 
  5.22e-04s  4.68e-04d  [MaxClique] Merged 548 constraints with 1'192 literals into 535 constraints with 1'183 literals
  9.32e-04s  0.00e+00d  [DetectDominanceRelations] 
  3.22e-03s  0.00e+00d  [PresolveToFixPoint] #num_loops=1 #num_dual_strengthening=1 
  1.15e-03s  0.00e+00d  [ProcessAtMostOneAndLinear] 
  1.06e-04s  0.00e+00d  [DetectDuplicateConstraints] 
  9.18e-05s  0.00e+00d  [DetectDuplicateConstraintsWithDifferentEnforcements] #without_enforcements=1 
  6.70e-04s  5.35e-05d  [DetectDominatedLinearConstraints] #relevant_constraints=818 #num_inclusions=285 
  1.41e-04s  0.00e+00d  [DetectDifferentVariables] 
  8.03e-04s  7.37e-05d  [ProcessSetPPC] #relevant_constraints=3'112 #num_inclusions=120 
  3.18e-04s  3.39e-05d  [TransformClausesToExactlyOne] #num_amos=535 #num_clauses=1'706 #num_checked=1'706 
  1.76e-04s  0.00e+00d  [DetectEncodedComplexDomains] 
  3.71e-05s  0.00e+00d  [FindAlmostIdenticalLinearConstraints] 
  8.90e-04s  1.07e-03d  [FindBigAtMostOneAndLinearOverlap] 
  1.27e-03s  9.22e-04d  [FindBigVerticalLinearOverlap] #blocks=1 #saved_nz=34 
  1.85e-04s  2.67e-04d  [FindBigHorizontalLinearOverlap] #linears=457 
  4.46e-04s  2.67e-05d  [MergeClauses] #num_collisions=76 #num_merges=76 #num_saved_literals=221 
  9.46e-04s  0.00e+00d  [DetectDominanceRelations] 
  3.32e-03s  0.00e+00d  [PresolveToFixPoint] #num_loops=2 #num_dual_strengthening=1 
  9.46e-04s  0.00e+00d  [DetectDominanceRelations] 
  3.17e-03s  0.00e+00d  [PresolveToFixPoint] #num_loops=1 #num_dual_strengthening=1 
  2.01e-04s  0.00e+00d  [DetectDuplicateColumns] 
  1.00e-04s  0.00e+00d  [DetectDuplicateConstraints] 
[Symmetry] Graph for symmetry has 4'428 nodes and 13'501 arcs.
[Symmetry] Symmetry computation done. time: 0.000989699 dtime: 0.0013878
[SAT presolve] num removable Booleans: 89 / 505
[SAT presolve] num trivial clauses: 0
[SAT presolve] [0s] clauses:2'203 literals:6'350 vars:483 one_side_vars:197 simple_definition:71 singleton_clauses:0
[SAT presolve] [0.0002291s] clauses:2'202 literals:6'346 vars:483 one_side_vars:197 simple_definition:71 singleton_clauses:0
[SAT presolve] [0.000301267s] clauses:2'202 literals:6'346 vars:483 one_side_vars:197 simple_definition:71 singleton_clauses:0
  1.57e-04s  0.00e+00d  [DetectDuplicateConstraintsWithDifferentEnforcements] 
  5.89e-03s  2.19e-03d  [Probe] #probed=1'348 #new_binary_clauses=998 
  5.15e-04s  4.75e-04d  [MaxClique] Merged 538 constraints with 1'183 literals into 537 constraints with 1'182 literals
  9.58e-04s  0.00e+00d  [DetectDominanceRelations] 
  3.26e-03s  0.00e+00d  [PresolveToFixPoint] #num_loops=1 #num_dual_strengthening=1 
  1.14e-03s  0.00e+00d  [ProcessAtMostOneAndLinear] 
  1.04e-04s  0.00e+00d  [DetectDuplicateConstraints] 
  9.32e-05s  0.00e+00d  [DetectDuplicateConstraintsWithDifferentEnforcements] 
  6.78e-04s  5.28e-05d  [DetectDominatedLinearConstraints] #relevant_constraints=816 #num_inclusions=281 
  1.30e-04s  0.00e+00d  [DetectDifferentVariables] 
  8.17e-04s  7.36e-05d  [ProcessSetPPC] #relevant_constraints=3'122 #num_inclusions=122 
  3.31e-04s  3.41e-05d  [TransformClausesToExactlyOne] #num_amos=537 #num_clauses=1'716 #num_checked=1'716 
  1.79e-04s  0.00e+00d  [DetectEncodedComplexDomains] 
  4.45e-05s  1.80e-07d  [FindAlmostIdenticalLinearConstraints] #num_tested_pairs=2 
  8.84e-04s  1.05e-03d  [FindBigAtMostOneAndLinearOverlap] 
  1.23e-03s  9.17e-04d  [FindBigVerticalLinearOverlap] 
  1.93e-04s  2.67e-04d  [FindBigHorizontalLinearOverlap] #linears=457 
  3.68e-04s  2.69e-05d  [MergeClauses] #num_collisions=78 #num_merges=78 #num_saved_literals=225 
  9.73e-04s  0.00e+00d  [DetectDominanceRelations] 
  3.28e-03s  0.00e+00d  [PresolveToFixPoint] #num_loops=1 #num_dual_strengthening=1 
  2.14e-05s  0.00e+00d  [MergeNoOverlap] 
  2.07e-05s  0.00e+00d  [MergeNoOverlap2D] 

Presolve summary:
  - 36 affine relations were detected.
  - rule 'TODO dual: only one blocking constraint?' was applied 878 times.
  - rule 'TODO dual: tighten at most one' was applied 8 times.
  - rule 'TODO linear inclusion: superset is equality' was applied 79 times.
  - rule 'affine: new relation' was applied 36 times.
  - rule 'at_most_one: removed literals' was applied 41 times.
  - rule 'at_most_one: size one' was applied 40 times.
  - rule 'at_most_one: transformed into max clique' was applied 3 times.
  - rule 'bool_or: implications' was applied 78 times.
  - rule 'bool_or: only one literal' was applied 12 times.
  - rule 'bool_or: removed enforcement literal' was applied 621 times.
  - rule 'deductions: 912 stored' was applied 1 time.
  - rule 'duplicate: merged rhs of linear constraint' was applied 8 times.
  - rule 'duplicate: removed constraint' was applied 9 times.
  - rule 'duplicate: removed enforced constraint' was applied 1 time.
  - rule 'enforcement: false literal' was applied 32 times.
  - rule 'enforcement: true literal' was applied 6 times.
  - rule 'exactly_one: removed literals' was applied 33 times.
  - rule 'exactly_one: satisfied' was applied 3 times.
  - rule 'exactly_one: singleton' was applied 3 times.
  - rule 'exactly_one: size two' was applied 30 times.
  - rule 'exactly_one: x and not(x)' was applied 4 times.
  - rule 'incompatible linear: add implication' was applied 132 times.
  - rule 'linear + amo: empty after processing' was applied 6 times.
  - rule 'linear + amo: extracted enforcement literal' was applied 56 times.
  - rule 'linear inclusion: redundant containing constraint' was applied 3 times.
  - rule 'linear inclusion: redundant included constraint' was applied 3 times.
  - rule 'linear inclusion: sparsify superset' was applied 1 time.
  - rule 'linear matrix: common vertical rectangle' was applied 8 times.
  - rule 'linear1: x in domain' was applied 26 times.
  - rule 'linear2: convert ax + by != cte to clauses' was applied 268 times.
  - rule 'linear2: convert implied ax + by == cte to clauses' was applied 130 times.
  - rule 'linear2: implied ax + by = cte has only one solution' was applied 10 times.
  - rule 'linear: always true' was applied 414 times.
  - rule 'linear: empty' was applied 1 time.
  - rule 'linear: extracted at most one (max)' was applied 1 time.
  - rule 'linear: fixed or dup variables' was applied 879 times.
  - rule 'linear: negative clause' was applied 1'295 times.
  - rule 'linear: negative reified and' was applied 78 times.
  - rule 'linear: never in domain' was applied 6 times.
  - rule 'linear: positive at most one' was applied 30 times.
  - rule 'linear: reduced variable domains' was applied 9 times.
  - rule 'linear: remapped using affine relations' was applied 22 times.
  - rule 'new_bool: integer encoding' was applied 24 times.
  - rule 'presolve: 74 unused variables removed.' was applied 1 time.
  - rule 'presolve: iteration' was applied 3 times.
  - rule 'probing: bool_or reduced to implication' was applied 29 times.
  - rule 'probing: simplified clauses' was applied 12 times.
  - rule 'setppc: bool_or in at_most_one' was applied 7 times.
  - rule 'setppc: removed dominated constraints' was applied 92 times.
  - rule 'variables: add encoding constraint' was applied 24 times.

Presolved satisfaction model '': (model_fingerprint: 0xccf310a49ee9b555)
#Variables: 513 (445 primary variables)
  - 505 Booleans in [0,1]
  - 8 in [0,2]
#kAtMostOne: 53 (#literals: 214)
#kBoolAnd: 286 (#enforced: 286) (#literals: 770)
#kBoolAndClauses: 78 (#enforced: 78 #multi: 78) (#literals: 381)
#kBoolOr: 1'560 (#literals: 4'768)
#kExactlyOne: 53 (#literals: 199)
#kLinear1: 48 (#enforced: 48)
#kLinearN: 816 (#enforced: 120) (#terms: 5'685)
[Symmetry] Graph for symmetry has 4'180 nodes and 13'490 arcs.
[Symmetry] Symmetry computation done. time: 0.000907657 dtime: 0.00137289

Preloading model.
#Model   0.10s var:513/513 constraints:2894/2894

Starting search at 0.10s with 4 workers.
3 full problem subsolvers: [default_lp, max_lp, no_lp]
1 first solution subsolver: [fj]
2 interleaved subsolvers: [feasibility_pump, rins/rens]
2 helper subsolvers: [neighborhood_helper, synchronization_agent]

#Model  28.56s var:512/513 constraints:2880/2894
#Model  72.66s var:511/513 constraints:2878/2894
#Model 107.63s var:510/513 constraints:2876/2894
#Model 187.40s var:500/513 constraints:2798/2894
#Model 218.59s var:499/513 constraints:2796/2894
#Model 359.73s var:498/513 constraints:2792/2894
#Model 360.28s var:497/513 constraints:2788/2894
#Model 491.17s var:495/513 constraints:2785/2894
#Model 767.39s var:494/513 constraints:2781/2894
#Model 882.96s var:491/513 constraints:2742/2894
#Model 886.49s var:490/513 constraints:2719/2894
#Model 898.11s var:489/513 constraints:2717/2894
#Model 1074.64s var:488/513 constraints:2717/2894
#Model 1092.21s var:487/513 constraints:2717/2894
#Model 1143.40s var:486/513 constraints:2716/2894
#Model 1184.66s var:485/513 constraints:2699/2894
#Model 1205.51s var:483/513 constraints:2696/2894
#Model 1209.04s var:482/513 constraints:2695/2894
#Model 1213.34s var:481/513 constraints:2694/2894
#Model 1238.16s var:480/513 constraints:2677/2894
#Model 1284.13s var:479/513 constraints:2676/2894
#Model 1288.02s var:478/513 constraints:2675/2894
#Model 1298.03s var:477/513 constraints:2674/2894
#Model 1298.63s var:476/513 constraints:2673/2894
#Model 1301.94s var:475/513 constraints:2673/2894
#Model 1302.28s var:474/513 constraints:2653/2894
#Model 1303.92s var:473/513 constraints:2636/2894
#Model 1308.73s var:471/513 constraints:2633/2894
#Model 1320.88s var:467/513 constraints:2610/2894
#Model 1320.99s var:466/513 constraints:2606/2894
#Model 1323.67s var:458/513 constraints:2522/2894
#Model 1323.78s var:449/513 constraints:2434/2894
#Model 1323.87s var:438/513 constraints:2313/2894
#Model 1323.90s var:436/513 constraints:2276/2894
#Done  1323.90s no_lp

Task timing                   n [     min,      max]      avg      dev     time         n [     min,      max]      avg      dev    dtime
        'default_lp':         1 [  22.06m,   22.06m]   22.06m   0.00ns   22.06m         2 [  2.28ms,   19.86m]    9.93m    9.93m   19.86m
  'feasibility_pump':      6555 [920.87us, 188.53ms]   1.82ms   2.35ms   11.93s      6554 [291.83us, 167.29ms] 318.90us   2.06ms    2.09s
                'fj':      4709 [105.51ms, 177.70ms] 139.20ms  11.46ms   10.92m      4709 [100.00ms, 100.12ms] 100.02ms  12.03us    7.85m
            'max_lp':         1 [  22.06m,   22.06m]   22.06m   0.00ns   22.06m         2 [ 98.79ms,   26.52m]   13.26m   13.26m   26.52m
             'no_lp':         1 [  22.06m,   22.06m]   22.06m   0.00ns   22.06m         2 [  2.12ms,   38.23m]   19.11m   19.11m   38.23m
         'rins/rens':      6130 [ 16.93ms, 183.81ms] 106.93ms  40.34ms   10.92m      6129 [235.22us, 100.39ms]  67.44ms  37.97ms    6.89m

Search stats     Bools   Conflicts    Branches  Restarts  BacktrackToRoot   Backtrack   BoolPropag  IntegerPropag
  'default_lp':    505     134'449   5'862'805       742        1'012'517   1'400'706   75'042'044     74'593'839
      'max_lp':    505     102'552   7'511'595       491        1'281'934   1'686'500   94'154'456    105'784'006
       'no_lp':    505  10'138'316  14'900'043    33'766          406'450  10'516'470  899'987'419    256'063'754

SAT formula      Fixed  Equiv  Total  VarLeft  BinaryClauses  PermanentClauses  TemporaryClauses
  'default_lp':     42     10    505      453          2'394            29'659             2'976
      'max_lp':     38     10    505      457          2'438            32'123             4'068
       'no_lp':    251     13    505      241          3'080            57'629             4'599

SAT stats        ClassicMinim   LitRemoved  LitRemovedBinary   LitLearned  LitForgotten   Subsumed
  'default_lp':       115'050    1'450'227           995'606    3'379'033     1'803'927     54'091
      'max_lp':        84'379    1'015'272           645'938    2'155'241     1'045'963     39'178
       'no_lp':     9'003'816  169'966'778        72'026'626  248'033'962   198'774'344  2'633'881

Vivification       Clauses  Decisions  LitTrue  Subsumed  LitRemoved  DecisionReused  Conflicts
  'default_lp':  1'105'282  5'535'385       21    20'249     205'087         340'897      2'334
      'max_lp':  1'376'712  7'178'473        9    22'261     225'000         408'472      2'642
       'no_lp':    337'342  2'715'004        0    24'768     327'620          91'184      2'406

Clause deletion    at_true  l_and_not(l)  to_binary  sub_conflict  sub_extra  sub_decisions  sub_eager  sub_vivify  sub_probing  sub_inpro  blocked  eliminated  forgotten    promoted   conflicts
    'default_lp':   13'617            68         96        53'094        427          1'554        997      20'249        6'919     20'996        0           0     54'326     268'710     134'449
        'max_lp':   11'046            20        103        38'696        263          1'096        482      22'261        7'062     17'289        0           0     37'892     199'492     102'552
         'no_lp':   62'136           168        184     2'585'071     24'549        117'531     48'810      24'768       20'769    132'373        0           0  7'071'748  23'211'504  10'138'316

Lp stats         Component  Iterations  AddedCuts  OPTIMAL  DUAL_F.  DUAL_U.
  'default_lp':          1  13'087'885     59'735  173'261        0   77'579
      'max_lp':          1   7'256'855     55'969   26'344   70'654   17'969

Lp dimension        Final dimension of first component
  'default_lp':    275 rows, 355 columns, 2114 entries
      'max_lp':  1349 rows, 513 columns, 13822 entries

Lp debug         CutPropag  CutEqPropag  Adjust  Overflow        Bad  BadScaling
  'default_lp':          0           38  77'577         0  1'498'929           0
      'max_lp':          0        1'345  17'963         0  1'634'098           0

Lp pool          Constraints  Updates  Simplif  Merged  Shortened  Split  Strengthened      Cuts/Call
  'default_lp':       10'514   13'400        0       1        987      0             0  59'735/83'516
      'max_lp':       13'190   22'299        0      15        381      0         1'451  55'969/86'817

Lp Cut            default_lp  max_lp
          CG_FF:         670     131
           CG_K:         335      12
          CG_KL:         281       4
           CG_R:         713      63
          CG_RB:           6       -
         CG_RBP:           2       -
         Clique:           -     444
             IB:          79      13
       MIR_1_FF:         384     615
        MIR_1_K:          94      20
       MIR_1_KL:         257      42
        MIR_1_R:         372     284
       MIR_1_RB:           -       5
      MIR_1_RLT:           -   8'278
       MIR_2_FF:         432     521
        MIR_2_K:          97      76
       MIR_2_KL:         204      95
        MIR_2_R:         697     608
       MIR_2_RB:           -       8
       MIR_3_FF:         201     158
        MIR_3_K:          46      14
       MIR_3_KL:          64      20
        MIR_3_R:         474     234
       MIR_3_RB:           2       3
      MIR_3_RBP:           3       -
       MIR_4_FF:          62      33
        MIR_4_K:          15       7
       MIR_4_KL:          17       4
        MIR_4_R:         385     161
       MIR_4_RB:           2       8
      MIR_4_RBP:           2       1
       MIR_5_FF:          20       8
        MIR_5_K:           6       3
       MIR_5_KL:           6       -
        MIR_5_R:         304     119
       MIR_5_RB:           -       5
       MIR_6_FF:           8       4
        MIR_6_K:           1       2
        MIR_6_R:         222     109
       MIR_6_RB:           -       3
      MIR_6_RBP:           3       -
   ZERO_HALF_FF:         265     576
    ZERO_HALF_K:         106      33
   ZERO_HALF_KL:          60      11
    ZERO_HALF_R:      52'812  43'188
   ZERO_HALF_RB:          13       3
  ZERO_HALF_RBP:          13      43

LNS stats       Improv/Calls  Closed  Difficulty  TimeLimit
  'rins/rens':     6129/6129     50%    7.99e-01       0.10

LS stats                                    Batches  Restarts/Perturbs    LinMoves   GenMoves  CompoundMoves  Bactracks  WeightUpdates  ScoreComputed
                             'fj_restart':      178                 79   6'346'129          0              0          0      4'353'876      8'427'164
                    'fj_restart_compound':      258                 81           0  3'115'933        198'242  1'458'686          6'868     48'787'276
                'fj_restart_compound_obj':      292                 61           0  3'692'856        184'148  1'754'244          8'577     55'176'579
            'fj_restart_compound_perturb':      130                 66           0  1'497'686        126'989    685'215          2'944     24'497'898
        'fj_restart_compound_perturb_obj':      269                 56           0  3'338'280        153'522  1'592'282          8'758     51'120'716
                       'fj_restart_decay':      480                 64  17'565'074          0              0          0        721'982      8'479'927
              'fj_restart_decay_compound':      214                 69           0  2'753'999        454'116  1'149'745          2'990     40'944'712
          'fj_restart_decay_compound_obj':      421                 77           0  5'712'516        933'845  2'389'104          5'737     80'986'538
      'fj_restart_decay_compound_perturb':      365                 69           0  4'921'043        809'201  2'055'763          4'991     69'968'630
  'fj_restart_decay_compound_perturb_obj':      281                 87           0  3'755'527        586'229  1'584'425          3'833     53'424'823
                   'fj_restart_decay_obj':      672                 75  24'652'095          0              0          0      1'009'157     11'846'712
               'fj_restart_decay_perturb':      323                 76  11'827'042          0              0          0        484'518      5'719'500
           'fj_restart_decay_perturb_obj':      152                 73   5'564'417          0              0          0        227'765      2'792'520
                         'fj_restart_obj':      214                 65   7'724'549          0              0          0      5'405'209     10'316'965
                     'fj_restart_perturb':      185                 56   6'464'671          0              0          0      4'558'780      8'953'074
                 'fj_restart_perturb_obj':      275                 68   9'243'789          0              0          0      7'191'531     13'664'281

Solution repositories    Added  Queried  Synchro
    'alternative_path':      0        0        0
      'best_solutions':      0        0        0
   'fj solution hints':  1'114        0    1'114
        'lp solutions':    959    6'130      959
                'pump':      0        0

Improving bounds shared    Num  Sym
            'default_lp':   11    0
                'max_lp':   28    0
                 'no_lp':  124    0

Clauses shared    #Exported  #Imported  #BinaryRead  #BinaryTotal
   'default_lp':      7'123     71'037        1'287         1'868
       'max_lp':      7'936     69'328        1'232         1'868
        'no_lp':     69'290     13'462        1'868         1'868

LRAT_status: NA
CpSolverResponse summary:
status: INFEASIBLE
objective: NA
best_bound: NA
integers: 355
booleans: 505
conflicts: 10138316
branches: 14900043
propagations: 899987419
integer_propagations: 256063754
restarts: 33766
lp_iterations: 0
walltime: 1323.93
usertime: 1323.93
deterministic_time: 5963.06
gap_integral: 0

{
  "board_size": 22,
  "parity_proved": 0,
  "target": 34,
  "child_id": 687,
  "child_count": 2640,
  "partition": "unknown_pair_x_diag_plus_twos_x_diag_minus_twos",
  "build_seconds": 0.08147001266479492,
  "workers": 4,
  "requested_seed": 2026072787,
  "effective_seed": 2026072787,
  "main_diagonal_pair": [
    2,
    4
  ],
  "pair_index": 41,
  "diag_plus_twos": 17,
  "diag_minus_twos": 15,
  "pair_excess": 0,
  "residual_certificate_slack": 112,
  "analytic_minimum_line_defect": 22,
  "analytic_defect_details": {
    "row_costs": {
      "12": 6,
      "13": 3,
      "14": 0,
      "15": 0,
      "16": 0,
      "17": 0
    },
    "column_costs": {
      "12": 6,
      "13": 3,
      "14": 0,
      "15": 0,
      "16": 0,
      "17": 0
    },
    "plus_cost": 0,
    "minus_cost": 22,
    "row_column_minimum": 0
  },
  "maximal_line_constraints": 2455,
  "analytic_infeasible": false,
  "allowed_points": 242,
  "status": "INFEASIBLE",
  "proof_method": "cp_sat_all_lines_with_certificate_profile_cuts",
  "elapsed_seconds": 1323.9350402355194,
  "branches": 14900043,
  "conflicts": 10138316
}
